# Objective value = 15
WA1n 0
WA1p 0
WA2n 0
WA2p 1
WB1n 1
WB1p 0
WC1n 1
WC1p 0
WD1n 0
WD1p 1
WD2n 0
WD2p 1
WE1n 2
WE1p 0
WF1n 0
WF1p 2
WT1n 0
WT1p 2
WT2n 0
WT2p 1
5 7
a 0
b 1
c 0
d 0
e 1
f 1
g 0
h 1
i 1
j 1
